1 2051 10
2 1759 9
3 1676 9
5 1650 9
10 1639 9
13 1620 9
14 1612 9
23 1581 9
38 1563 9
75 1539 9
99 1501 9



1 2042 10
2 1734 10
4 1723 9
5 1614 9
9 1567 9
77 1566 9
86 1541 9
87 1535 9



1 2086 10
2 1725 9
3 1711 10
4 1658 9
5 1631 9
7 1607 9
17 1600 9
23 1595 9
31 1592 9
66 1591 9
81 1582 9
106 1581 9
115 1524 9
337 1504 9



1 2000 10
2 1739 9
3 1658 10
4 1650 9
9 1612 9
15 1609 9
16 1596 9
30 1589 9
64 1578 9
71 1576 9
76 1566 9
94 1549 9
143 1540 9
438 1517 9



1 2021 10
2 1741 9
3 1677 10
8 1635 9
9 1573 9
20 1564 9
93 1537 9
946 1526 9



